%mem=4GB
%nprocshared=8
#p opt hf lanl1mb

328 FINAL HEAT OF FORMATION = 0.000000

0 1
 Pt                 0.03927900   -0.08169400   -0.73796400
 Cl                -0.62643500    2.11297600   -1.72790500
 Cl                -1.71971500   -1.25842000   -2.02213500
 Cl                 1.51753800   -0.49981700   -2.67427300
 Cl                 0.58775800   -2.19885400    0.48766500
 N                 -1.27012800    0.35098200    0.96495700
 H                 -1.15983900   -0.46898500    1.58643300
 N                  1.50325300    1.06543300    0.43108800
 H                  1.50265500    2.00931600   -0.03456500
 C                 -0.62507600    1.51166200    1.67401200
 H                 -0.82042000    2.41444800    1.09835500
 H                 -1.05891000    1.61227400    2.67144200
 C                  0.88342100    1.25801700    1.78922200
 H                  1.07366700    0.36176200    2.37919400
 H                  1.35506300    2.11717600    2.27487400
 C                 -2.77507100    0.48562200    0.70109700
 H                 -2.89908700    0.73343500   -0.35009500
 C                  3.00931400    0.84967100    0.58230500
 H                  3.20539000    0.76618300    1.65233900
 C                 -3.42836100    1.62866900    1.54087700
 O                 -3.29658700    1.80781600    2.73714600
 O                 -4.24097300    2.39428200    0.72242300
 C                  3.55814400    2.22472400    0.07610100
 O                  2.77973700    3.07881400   -0.32321400
 O                  4.92189500    2.35137700    0.13573100
 C                 -3.44896300   -0.87171800    1.04477700
 H                 -2.97269000   -1.64904300    0.45327700
 H                 -3.25712400   -1.08157700    2.09680700
 C                  3.67262400   -0.34993000   -0.14497300
 H                  2.98472100   -1.18744300   -0.14297300
 H                  3.85620000   -0.07755300   -1.17843300
 C                  5.00547900   -0.78387100    0.52487700
 C                  4.77262900   -1.53544600    1.85975000
 C                  5.79172000   -1.69006900   -0.45538900
 H                  5.60306400    0.10618300    0.72151300
 C                  6.10539000   -2.00702900    2.48053100
 H                  4.13462700   -2.39736400    1.67451500
 H                  4.25519200   -0.89789700    2.57283400
 C                  7.12418100   -2.16997300    0.15820800
 H                  5.17884100   -2.55121700   -0.71438400
 H                  5.98947200   -1.14358400   -1.37488500
 C                  6.89505200   -2.89753000    1.49910200
 H                  5.90418400   -2.55584700    3.39826600
 H                  6.70695600   -1.13924800    2.74513300
 H                  7.62735500   -2.83445000   -0.54104700
 H                  7.77577000   -1.31319300    0.31972700
 H                  7.85131900   -3.17312900    1.93882100
 H                  6.33973200   -3.81627700    1.32097500
 C                 -4.98096500   -0.90248300    0.79774700
 C                 -5.35003100   -0.68962500   -0.69159600
 C                 -5.54506300   -2.25579900    1.30020300
 H                 -5.44330300   -0.10807100    1.38487800
 C                 -6.87551500   -0.78623600   -0.90925800
 H                 -4.84646300   -1.44195900   -1.29469400
 H                 -5.00393700    0.28412100   -1.02801000
 C                 -7.06964300   -2.35226500    1.08219200
 H                 -5.05162200   -3.06564700    0.76654800
 H                 -5.31823300   -2.37587100    2.35762000
 C                 -7.43613100   -2.13003400   -0.39960800
 H                 -7.09573600   -0.67194500   -1.96841200
 H                 -7.36688100    0.03120600   -0.38461500
 H                 -7.42165900   -3.32853300    1.40902600
 H                 -7.56939400   -1.60404900    1.69468100
 H                 -8.51745600   -2.14883000   -0.51851700
 H                 -7.02682900   -2.94175100   -0.99767700
 C                  5.38313100    3.60716300   -0.40476000
 H                  4.98223100    4.45364000    0.15947800
 H                  6.47090100    3.59775900   -0.32172900
 H                  5.09829900    3.71550300   -1.45484900
 C                 -4.93520100    3.42691000    1.44627700
 H                 -4.23792300    4.12892200    1.91176200
 H                 -5.54804700    3.95949800    0.71761100
 H                 -5.58016400    3.00832500    2.22386000

