%mem=4GB
%nprocshared=8
#p opt hf lanl1mb

328 FINAL HEAT OF FORMATION = 0.000000

0 1
 Pt                -0.02552700   -0.60351200   -0.63212500
 Cl                -0.64893700    0.94495300   -2.48918600
 Cl                -1.80302900   -2.20182200   -1.25934500
 Cl                 1.38903700   -1.86300700   -2.22727300
 Cl                 0.57562400   -1.95870300    1.38360200
 N                 -1.33898300    0.54753500    0.69662200
 H                 -1.22671300    0.11059000    1.62781000
 N                  1.46727200    0.91031700   -0.03428400
 H                  1.56639700    1.53532000   -0.86249000
 C                 -0.70168600    1.90788500    0.78465800
 H                 -0.88267500    2.43390600   -0.15028100
 H                 -1.14988900    2.46410000    1.61121200
 C                  0.79900900    1.73583200    1.04042600
 H                  0.95603600    1.22629000    1.99047200
 H                  1.27320200    2.71945600    1.07800500
 C                 -2.84427100    0.54188200    0.40359700
 H                 -2.97147200    0.29058600   -0.64625800
 C                  2.91948500    0.67964000    0.39112700
 H                  2.92091300    0.56200300    1.47400600
 C                 -3.49531400    1.94257700    0.63990100
 O                 -3.36905400    2.62731400    1.63839300
 O                 -4.29357900    2.26204200   -0.44195200
 C                  3.61260000    2.02484100   -0.00675400
 O                  3.11714400    2.77352600   -0.83203900
 O                  4.79618900    2.23643400    0.66314800
 C                 -3.50932500   -0.51867500    1.32434600
 H                 -3.02992800   -1.47657500    1.14077900
 H                 -3.31080200   -0.23369500    2.35747000
 C                  3.61964800   -0.53477800   -0.26934000
 H                  3.02062100   -1.41576200   -0.07012100
 H                  3.64025100   -0.38184100   -1.34450900
 C                  5.06429400   -0.78907900    0.24044300
 C                  5.10109500   -1.21384200    1.72990300
 C                  5.70907700   -1.88674800   -0.64343200
 H                  5.64670000    0.12471900    0.12933100
 C                  6.53743700   -1.54879200    2.18710800
 H                  4.46264500   -2.08423000    1.86939000
 H                  4.71028200   -0.41686400    2.35755600
 C                  7.14523700   -2.21770800   -0.18632000
 H                  5.09751300   -2.78559800   -0.59691700
 H                  5.72148800   -1.55628600   -1.67978300
 C                  7.17538600   -2.63588500    1.29807000
 H                  6.51848900   -1.88171100    3.22283300
 H                  7.14594700   -0.64719300    2.14631700
 H                  7.54713700   -3.01770900   -0.80449000
 H                  7.78051400   -1.34537500   -0.32864800
 H                  8.20176700   -2.81357000    1.61237800
 H                  6.62904400   -3.56891900    1.42116100
 C                 -5.04221000   -0.66595800    1.13215600
 C                 -5.42147600   -1.13872400   -0.29323800
 C                 -5.58850200   -1.65820600    2.18981800
 H                 -5.50874000    0.30361000    1.30967100
 C                 -6.94645500   -1.33674800   -0.43079500
 H                 -4.91103300   -2.07540600   -0.50639400
 H                 -5.08934300   -0.41047200   -1.02861700
 C                 -7.11279300   -1.85465400    2.05125900
 H                 -5.08804700   -2.61689200    2.06869000
 H                 -5.35568400   -1.29229400    3.18779300
 C                 -7.48805900   -2.31852500    0.62861800
 H                 -7.17230200   -1.70779000   -1.42821200
 H                 -7.44598200   -0.37593700   -0.32013600
 H                 -7.45171700   -2.58622500    2.78184200
 H                 -7.61873600   -0.91631600    2.27109900
 H                 -8.56949500   -2.39821500    0.53988000
 H                 -7.07115800   -3.30778800    0.45042600
 C                  5.47767300    3.44733400    0.26064900
 H                  6.52100400    3.30149800    0.55416900
 H                  5.43617400    3.56350100   -0.82694600
 C                 -4.99057600    3.51859800   -0.29653000
 H                 -5.82695800    3.46776300   -0.99920300
 H                 -5.39459100    3.61650800    0.71618900
 C                  4.90558800    4.70267400    0.95402800
 H                  3.88627800    4.89114700    0.63223900
 H                  4.91999800    4.57950800    2.03273400
 H                  5.51369500    5.56334100    0.69374800
 C                 -4.09534700    4.73089300   -0.63326600
 H                 -3.29305500    4.83141400    0.09075300
 H                 -3.66545300    4.61826000   -1.62403200
 H                 -4.69368100    5.63640900   -0.61307300

