%mem=4GB
%nprocshared=8
#p opt hf lanl1mb

328 FINAL HEAT OF FORMATION = 0.000000

0 1
 Pt                 0.18931738   -0.27468272    0.49383046
 Cl                 2.26486743   -1.17541247    0.83406017
 Cl                 0.36892195    0.89610569    2.44514538
 N                 -0.00019461   -1.02921171   -1.28485552
 H                 -0.19318291   -2.01554872   -1.24612539
 N                 -1.66560982    0.34072892    0.28019075
 H                 -1.70696738    1.32907971    0.13319266
 C                 -1.13125825   -0.32062169   -1.93401689
 H                 -0.88845757    0.70396122   -2.13029465
 H                 -1.39804740   -0.79094865   -2.85883197
 C                 -2.24147189   -0.37814148   -0.88225908
 H                 -2.42014279   -1.41145456   -0.64852638
 H                 -3.15786913    0.06815140   -1.19602210
 C                  1.25541621   -0.73472838   -1.93337790
 H                  2.07581584   -1.19374210   -1.42830554
 C                 -2.24856563   -0.04983813    1.50138263
 H                 -1.67972961    0.36285314    2.30475087
 C                  1.36690690    0.77558219   -1.77612189
 O                  1.79163799    1.52876971   -2.68786309
 O                  0.95457845    1.26755303   -0.48487720
 C                 -2.01133801   -1.53580629    1.42121544
 O                 -2.92180995   -2.39540237    1.28651541
 O                 -0.60148421   -1.83010621    1.45956811
 C                  1.33651733   -1.22955929   -3.37030508
 H                  1.41898574   -2.29665858   -3.34957419
 H                  0.49265917   -0.96427590   -3.96526332
 C                 -3.68048902    0.39353633    1.76983218
 H                 -3.66312110    1.45089937    1.92849140
 H                 -4.35818413    0.17633611    0.96857400
 C                 -4.11361287   -0.35810447    3.02692096
 C                 -2.94029254   -0.40588340    4.01442160
 C                 -5.31432527    0.34769950    3.68075365
 H                 -4.36226689   -1.36309635    2.76388924
 C                 -3.36249771   -1.22915927    5.23757975
 H                 -2.66729922    0.58149537    4.31211637
 H                 -2.10313081   -0.87951985    3.54051957
 C                 -5.73143883   -0.43165007    4.94423667
 H                 -5.02941323    1.34147328    3.95333483
 H                 -6.13092887    0.39020718    2.99651378
 C                 -4.54278008   -0.52843302    5.92465001
 H                 -2.54308365   -1.30685501    5.91807642
 H                 -3.65664481   -2.21157179    4.92589931
 H                 -6.54593509    0.07275100    5.42030027
 H                 -6.03628057   -1.41523064    4.66202824
 H                 -4.83859125   -1.08908382    6.78657334
 H                 -4.23955479    0.45410235    6.22346010
 C                  2.59398665   -0.56582335   -3.93067421
 C                  3.67761937   -0.57985072   -2.85118465
 C                  3.09546296   -1.29905095   -5.18627520
 H                  2.36786086    0.45435379   -4.16164557
 C                  4.90183811    0.17894079   -3.37407733
 H                  3.94296971   -1.58481873   -2.60636486
 H                  3.30470898   -0.08553498   -1.97460894
 C                  4.35823658   -0.58410969   -5.71144352
 H                  3.33640116   -2.30961004   -4.93011333
 H                  2.34081295   -1.29823427   -5.94093812
 C                  5.44509461   -0.54938578   -4.61117061
 H                  5.65340125    0.21302963   -2.61641820
 H                  4.61930959    1.17879233   -3.63661270
 H                  4.73608477   -1.10649257   -6.56495660
 H                  4.10495799    0.41641489   -5.98570294
 H                  6.30582933   -0.03212654   -4.97901704
 H                  5.71486662   -1.54713836   -4.33835470

 1 2 1.0 3 1.0 4 1.0 6 1.0 20 1.0 23 1.0
 2
 3
 4 5 1.0 8 1.0 14 1.0
 5
 6 7 1.0 11 1.0 16 1.0
 7
 8 9 1.0 10 1.0 11 1.0
 9
 10
 11 12 1.0 13 1.0
 12
 13
 14 15 1.0 18 1.0 24 1.0
 15
 16 17 1.0 21 1.0 27 1.0
 17
 18 19 2.0 20 1.0
 19
 20
 21 22 2.0 23 1.0
 22
 23
 24 25 1.0 26 1.0 47 1.0
 25
 26
 27 28 1.0 29 1.0 30 1.0
 28
 29
 30 31 1.0 32 1.0 33 1.0
 31 34 1.0 35 1.0 36 1.0
 32 37 1.0 38 1.0 39 1.0
 33
 34 40 1.0 41 1.0 42 1.0
 35
 36
 37 40 1.0 43 1.0 44 1.0
 38
 39
 40 45 1.0 46 1.0
 41
 42
 43
 44
 45
 46
 47 48 1.0 49 1.0 50 1.0
 48 51 1.0 52 1.0 53 1.0
 49 54 1.0 55 1.0 56 1.0
 50
 51 57 1.0 58 1.0 59 1.0
 52
 53
 54 57 1.0 60 1.0 61 1.0
 55
 56
 57 62 1.0 63 1.0
 58
 59
 60
 61
 62
 63

