%mem=4GB
%nprocshared=8
#p opt hf lanl1mb

328 FINAL HEAT OF FORMATION = 0.000000

0 1
 Pt                -0.14759522   -0.39242764    0.13655967
 Cl                -0.03939022    1.88496756    0.12380126
 Cl                 2.13199282   -0.43345111    0.15054027
 Cl                -0.04751042   -0.38404171    2.41434647
 Cl                -0.22251676   -2.67001752    0.20984743
 N                 -0.24531197   -0.43304125   -1.85332663
 H                 -0.12643554   -1.37799994   -2.15815686
 N                 -2.13785515   -0.30637892    0.06521178
 H                 -2.41815031    0.64103184    0.21963808
 C                 -1.59061378    0.04857477   -2.21371376
 H                 -1.69261790    1.09570429   -2.01873960
 H                 -1.79021801   -0.12877133   -3.24986361
 C                 -2.52661657   -0.72652589   -1.29319775
 H                 -2.36637232   -1.77502242   -1.43418291
 H                 -3.55849618   -0.50899562   -1.47431939
 C                  0.78954606    0.40485285   -2.47614469
 H                  0.70633089    1.40638451   -2.10884432
 C                 -2.76844675   -1.16408678    1.07891364
 H                 -2.46252993   -2.17829924    0.92828834
 C                  0.60164277    0.40136994   -4.00463421
 O                  0.14986073   -0.47109723   -4.74507721
 O                  1.01253434    1.56136337   -4.57646753
 C                 -4.30019114   -1.06591557    0.95352805
 O                 -5.00553483   -0.13220562    0.57374149
 O                 -4.92215157   -2.21099023    1.33218258
 C                  2.18135350   -0.15532753   -2.12876883
 H                  2.63486927    0.45684584   -1.37745850
 H                  2.08184813   -1.15547084   -1.76173745
 C                 -2.33761333   -0.70110111    2.48305994
 H                 -1.56847186   -1.34739198    2.85133904
 H                 -1.96629689    0.30099496    2.42988494
 C                 -3.54818689   -0.75020908    3.43369135
 C                 -3.42831791   -1.95309732    4.34717932
 C                 -3.62232726    0.53777176    4.22877104
 H                 -4.46939523   -0.85192778    2.80187030
 C                 -4.55767904   -1.99446902    5.35632649
 H                 -2.44647632   -1.91347361    4.88827166
 H                 -3.43769843   -2.89195631    3.73473506
 C                 -4.75222042    0.49669232    5.23736330
 H                 -2.65027543    0.70195100    4.76403480
 H                 -3.77303199    1.40196751    3.53099222
 C                 -4.63388421   -0.70653366    6.15042676
 H                 -4.40579650   -2.85791054    6.05481475
 H                 -5.52958697   -2.16059839    4.82137352
 H                 -4.74258479    1.43529778    5.85012170
 H                 -5.73377731    0.45803041    4.69558705
 H                 -5.51657443   -0.74257326    6.84046659
 H                 -3.71416780   -0.60454667    6.78451374
 C                  3.06365010   -0.15712102   -3.39096909
 C                  4.04275121    0.99750848   -3.32803517
 C                  3.78639311   -1.48432853   -3.50368966
 H                  2.38704088   -0.02467833   -4.27574490
 C                  4.98756684    0.98512404   -4.51239839
 H                  4.63548036    0.93183754   -2.37791762
 H                  3.47956347    1.96654087   -3.30734837
 C                  4.73061057   -1.49697728   -4.68855161
 H                  4.36639029   -1.67410823   -2.56244908
 H                  3.03796264   -2.31183373   -3.61106036
 C                  5.70921946   -0.34199129   -4.62712576
 H                  5.73673239    1.81184159   -4.40388809
 H                  4.40798739    1.17683560   -5.45352166
 H                  5.29413886   -2.46577216   -4.70900248
 H                  4.13716632   -1.43223130   -5.63834215
 H                  6.34945382   -0.34290706   -5.54728605
 H                  6.38799040   -0.47482074   -3.74396538
 C                 -6.34018469   -2.08037734    1.20171288
 H                 -6.81778036   -2.94063619    1.62213777
 H                 -6.66662638   -1.20259402    1.71923800
 C                  0.82225600    1.51919787   -5.99312424
 H                  1.27207503    2.38149130   -6.43923283
 H                  1.27735020    0.63494912   -6.38795764
 C                 -6.71008398   -1.96493946   -0.28873960
 H                 -6.72753513   -0.93355028   -0.57304899
 H                 -5.98384754   -2.48504443   -0.87778243
 C                 -0.68505750    1.50538809   -6.30842617
 H                 -1.02843961    0.49354104   -6.36458915
 H                 -1.21598638    2.01979362   -5.53486204
 C                 -8.10010406   -2.58536863   -0.52221726
 H                 -8.81640003   -2.10386228    0.11021592
 H                 -8.06741667   -3.63007057   -0.29324260
 C                 -0.93401622    2.20752220   -7.65624932
 H                 -0.35998150    1.72644366   -8.42041395
 H                 -0.64115813    3.23406171   -7.58310035
 C                 -2.43065229    2.12460011   -8.00952598
 H                 -2.74065658    1.10049261   -8.01060570
 H                 -2.99899052    2.66852552   -7.28424204
 H                 -2.59217984    2.54716755   -8.97918861
 C                 -8.50623830   -2.39521703   -1.99547805
 H                 -8.46793561   -1.35533777   -2.24464473
 H                 -7.83159172   -2.93773883   -2.62430401
 H                 -9.50137167   -2.76045624   -2.14111421

 1 2 1.0 3 1.0 4 1.0 5 1.0 6 1.0 8 1.0
 2
 3
 4
 5
 6 7 1.0 10 1.0 16 1.0
 7
 8 9 1.0 13 1.0 18 1.0
 9
 10 11 1.0 12 1.0 13 1.0
 11
 12
 13 14 1.0 15 1.0
 14
 15
 16 17 1.0 20 1.0 26 1.0
 17
 18 19 1.0 23 1.0 29 1.0
 19
 20 21 2.0 22 1.0
 21
 22 69 1.0
 23 24 2.0 25 1.0
 24
 25 66 1.0
 26 27 1.0 28 1.0 49 1.0
 27
 28
 29 30 1.0 31 1.0 32 1.0
 30
 31
 32 33 1.0 34 1.0 35 1.0
 33 36 1.0 37 1.0 38 1.0
 34 39 1.0 40 1.0 41 1.0
 35
 36 42 1.0 43 1.0 44 1.0
 37
 38
 39 42 1.0 45 1.0 46 1.0
 40
 41
 42 47 1.0 48 1.0
 43
 44
 45
 46
 47
 48
 49 50 1.0 51 1.0 52 1.0
 50 53 1.0 54 1.0 55 1.0
 51 56 1.0 57 1.0 58 1.0
 52
 53 59 1.0 60 1.0 61 1.0
 54
 55
 56 59 1.0 62 1.0 63 1.0
 57
 58
 59 64 1.0 65 1.0
 60
 61
 62
 63
 64
 65
 66 67 1.0 68 1.0 72 1.0
 67
 68
 69 70 1.0 71 1.0 75 1.0
 70
 71
 72 73 1.0 74 1.0 78 1.0
 73
 74
 75 76 1.0 77 1.0 81 1.0
 76
 77
 78 79 1.0 80 1.0 88 1.0
 79
 80
 81 82 1.0 83 1.0 84 1.0
 82
 83
 84 85 1.0 86 1.0 87 1.0
 85
 86
 87
 88 89 1.0 90 1.0 91 1.0
 89
 90
 91

