%mem=4GB
%nprocshared=8
#p opt hf lanl1mb

328 FINAL HEAT OF FORMATION = 0.000000

0 1
 Pt                 5.59652450    4.02649874  -13.16622471
 Cl                 5.60536660    4.02649874  -10.88624186
 Cl                 3.31654165    4.02649874  -13.15738262
 Cl                 5.58768240    4.02649874  -15.44620757
 Cl                 5.59652450    1.74649874  -13.16622471
 Cl                 7.87650735    4.02649874  -13.17506681
 N                  5.59652450    6.01649874  -13.16622471
 C                  4.88529180    6.80768233  -12.31042859
 C                  6.38121813    6.88940113  -14.11041325
 C                  5.15465603    8.23170182  -12.63454313
 C                  3.98909271    6.50383457  -11.23207026
 H                  7.03700345    6.58575573  -14.89949189
 N                  6.02654791    8.28985817  -13.68365363
 N                  4.50849463    9.24970200  -11.85704455
 N                  3.40994924    7.51258310  -10.53521151
 N                  3.72867747    5.09142606  -10.91872366
 C                  6.57835352    9.47963211  -14.34761789
 C                  3.67173754    8.89655171  -10.85021026
 H                  2.71936228    7.30449325   -9.70425753
 H                  4.02630760    4.89698430   -9.98405329
 C                  2.28920512    4.81969645  -11.04112613
 H                  7.12157540   10.06553679  -13.63591171
 C                  7.52431711    9.04239590  -15.48145094
 C                  5.42863842   10.32003291  -14.93369100
 N                  2.99442932    9.91535852  -10.03523403
 H                  2.13507475    3.77031457  -11.18234057
 H                  1.89544673    5.35413340  -11.88031114
 C                  1.56973726    5.27616316   -9.75831510
 H                  6.98090995    8.45716782  -16.19357224
 H                  7.92659772    9.90842275  -15.96422190
 H                  8.32270385    8.45780323  -15.07435140
 H                  5.02752524   10.95585067  -14.17228178
 H                  5.79917872   10.91856703  -15.73951777
 H                  4.66038359    9.66959558  -15.29647991
 H                  3.31862523    9.85657476   -9.09107224
 C                  1.54295667    9.68534017  -10.07014392
 C                  0.24778876    5.71794560   -9.81956763
 C                  2.23960434    5.24784503   -8.53519437
 H                  1.28912530    8.90370316   -9.38493358
 C                 -0.40384902    6.13193559   -8.65801598
 H                 -0.27979533    5.74087772  -10.78412500
 C                  1.58759206    5.66099648   -7.37304303
 H                  3.28145012    4.89951242   -8.48670947
 C                  0.26611467    6.10313317   -7.43427759
 H                 -1.44561969    6.48075878   -8.70631450
 H                  2.11587184    5.63817130   -6.40874344
 H                 -0.24790313    6.42954271   -6.51855992
 C                  0.80854896   10.97815632   -9.66905577
 H                  1.04763546   11.22441543   -8.65559926
 H                  1.11512963   11.77663598  -10.31196987
 C                  1.12210203    9.27652538  -11.49399498
 H                  1.74562466    9.77430045  -12.20697431
 H                  1.22662039    8.21761436  -11.60661542
 C                 -0.71121117   10.76732927   -9.80127187
 H                 -1.22617952   11.57169909   -9.31888531
 H                 -0.97907988   10.74245987  -10.83690108
 H                 -0.98431091    9.84134514   -9.33989358
 O                 -0.24168080    9.64684120  -11.71277019
 H                 -0.29681447   10.23351954  -12.47064141

 1 2 1.0 3 1.0 4 1.0 5 1.0 6 1.0 7 1.0
 2
 3
 4
 5
 6
 7 8 1.0 9 2.0
 8 10 2.0 11 1.0
 9 12 1.0 13 1.0
 10 14 1.0 13 1.0
 11 15 2.0 16 1.0
 12
 13 17 1.0
 14 18 2.0
 15 18 1.0 19 1.0
 16 20 1.0 21 1.0
 17 22 1.0 23 1.0 24 1.0
 18 25 1.0
 19
 20
 21 26 1.0 27 1.0 28 1.0
 22
 23 29 1.0 30 1.0 31 1.0
 24 32 1.0 33 1.0 34 1.0
 25 35 1.0 36 1.0
 26
 27
 28 37 1.5 38 1.5
 29
 30
 31
 32
 33
 34
 35
 36 39 1.0 48 1.0 51 1.0
 37 40 1.5 41 1.0
 38 42 1.5 43 1.0
 39
 40 44 1.5 45 1.0
 41
 42 44 1.5 46 1.0
 43
 44 47 1.0
 45
 46
 47
 48 49 1.0 50 1.0 54 1.0
 49
 50
 51 52 1.0 53 1.0 58 1.0
 52
 53
 54 55 1.0 56 1.0 57 1.0
 55
 56
 57
 58 59 1.0
 59

