%mem=4GB
%nprocshared=8
#p opt hf lanl1mb

328 FINAL HEAT OF FORMATION = 0.000000

-2 1
 Pt                 5.59652450    4.02649874  -13.16622471
 Cl                 5.60536660    4.02649874  -10.88624186
 Cl                 3.31654165    4.02649874  -13.15738262
 Cl                 5.58768240    4.02649874  -15.44620757
 Cl                 5.59652450    1.74649874  -13.16622471
 Cl                 7.87650735    4.02649874  -13.17506681
 Cl                 5.59652450    6.30649874  -13.16622471

 1 2 1.0 3 1.0 4 1.0 5 1.0 6 1.0 8 1.0
 2
 3
 4
 5
 6
 7
 8

