%mem=4GB
%nprocshared=8
#p opt hf lanl1mb

328 FINAL HEAT OF FORMATION = 0.000000

0 1
 Pt                 5.59652450    4.02649874  -13.16622471
 Cl                 5.60094556    4.02649874  -10.88622900
 Cl                 3.31652879    4.02649874  -13.16180366
 Cl                 5.59210344    4.02649874  -15.44622043
 Cl                 5.59652450    1.74649874  -13.16622471
 Cl                 7.87652021    4.02649874  -13.17064577
 N                  5.59652450    6.01649874  -13.16622471
 C                  6.38183875    6.80768233  -13.95459043
 C                  4.73009768    6.88940113  -12.29643125
 C                  6.08441771    8.23170182  -13.65601371
 N                  7.37138536    6.50383457  -14.94798208
 H                  4.00600618    6.58575572  -11.56952618
 N                  5.12171013    8.28985817  -12.68956537
 C                  6.79788286    9.24970200  -14.37225115
 C                  8.01085204    7.51258310  -15.58993351
 H                  4.67104184    9.16990053  -12.23714595
 N                  7.72179604    8.89655170  -15.29975434
 H                  8.77337010    7.30449324  -16.35541446
 H                  8.28157732    9.65914347  -15.86171074
 N                  6.49663174   10.65636077  -14.06982947
 H                  7.32514067   11.11221807  -13.74461095
 C                  6.01384261   11.32647145  -15.28587483
 H                  6.82703382   11.45424886  -15.96946315
 H                  5.25320964   10.72945545  -15.74403352
 C                  5.43241912   12.70384455  -14.91656456
 C                  6.21788157   13.63176387  -14.23210427
 C                  4.12062702   13.02376976  -15.26641805
 C                  5.69136835   14.87905047  -13.89701961
 H                  7.25178484   13.37894848  -13.95575269
 C                  3.59412380   14.27176196  -14.93217305
 C                  4.37918398   15.19933181  -14.24746019
 H                  6.31021311   15.61026364  -13.35696873
 H                  3.97548145   16.15631184  -13.99033476
 Cl                 1.93906181   14.67524576  -15.37440675
 H                  3.51814761   12.31229432  -15.79150972

 1 2 1.0 3 1.0 4 1.0 5 1.0 6 1.0 7 1.0
 2
 3
 4
 5
 6
 7 8 1.0 9 2.0
 8 10 2.0 11 1.0
 9 12 1.0 13 1.0
 10 14 1.0 13 1.0
 11 15 2.0
 12
 13 16 1.0
 14 17 2.0 20 1.0
 15 18 1.0 17 1.0
 16
 17 19 1.0
 18
 19
 20 21 1.0 22 1.0
 21
 22 23 1.0 24 1.0 25 1.0
 23
 24
 25 26 1.5 27 1.5
 26 28 1.5 29 1.0
 27 30 1.5 35 1.0
 28 31 1.5 32 1.0
 29
 30 31 1.5 34 1.0
 31 33 1.0
 32
 33
 34
 35

