%mem=4GB
%nprocshared=8
#p opt hf lanl1mb

328 FINAL HEAT OF FORMATION = 0.000000

0 1
 Pt                -0.56978805    0.26258872    0.48070365
 Cl                 1.69153351    0.48678207    0.29479477
 Cl                -0.58579983    0.09860383    2.75474247
 N                 -0.33797361    0.48978435   -1.50820081
 H                  0.64378420    0.41540304   -1.68318375
 N                 -2.56265591    0.04381462    0.64046943
 H                 -2.78302732    0.20449968    1.60255922
 H                 -0.66758137    1.35541501   -1.88508578
 H                 -2.91508264   -0.85295767    0.37289731
 C                 -3.11270831    1.07260140   -0.16094206
 H                 -4.07059158    1.38596694    0.19844866
 H                 -2.40176725    1.86784830   -0.07700655
 C                 -1.01337081   -0.62042371   -2.07109748
 H                 -0.58328152   -0.92734363   -3.00154004
 H                 -0.89405445   -1.38539311   -1.33252763
 C                 -2.50262362   -0.38266782   -2.39253962
 H                 -2.59177975   -0.06580528   -3.41065027
 H                 -2.93457647   -1.35054002   -2.24577409
 C                 -3.35715886    0.70208571   -1.63882765
 H                 -4.35012142    0.31608845   -1.73848441
 H                 -3.25181810    1.64338186   -2.13658750
 O                 -0.76240816    2.19249330    0.68285658
 C                  0.27614767    2.84012375    0.09686462
 O                  1.14152504    2.15558660   -0.44727939
 H                  0.19498250    3.93586914    0.19491979
 O                 -0.40716367   -1.67260790    0.30444433
 C                 -0.88429478   -2.29484947    1.41195113
 O                 -1.32618225   -1.58880822    2.31738087
 H                 -0.80556106   -3.39290508    1.34169823

 1 2 1.0 3 1.0 4 1.0 6 1.0 22 1.0 26 1.0
 2
 3
 4 5 1.0 8 1.0 13 1.0
 5
 6 7 1.0 9 1.0 10 1.0
 7
 8
 9
 10 11 1.0 12 1.0 19 1.0
 11
 12
 13 14 1.0 15 1.0 16 1.0
 14
 15
 16 17 1.0 18 1.0 19 1.0
 17
 18
 19 20 1.0 21 1.0
 20
 21
 22 23 1.0
 23 24 2.0 25 1.0
 24
 25
 26 27 1.0
 27 28 2.0 29 1.0
 28
 29

