%mem=4GB
%nprocshared=8
#p opt hf lanl1mb

328 FINAL HEAT OF FORMATION = 0.000000

0 1
 Cl                -0.09053208    3.46743698   -1.70266312
 Cl                -0.07522696    1.23112132   -4.02381424
 Cl                 2.16697149    1.17397015   -1.68280705
 Cl                -0.11434523   -1.09040088   -1.83188371
 N                 -2.10183899    1.21143826   -1.77071961
 H                 -2.45137072    0.44400716   -1.23324675
 H                 -2.43024403    2.07043919   -1.37795055
 H                 -2.42374575    1.13168475   -2.71412590
 C                  1.24026898    1.35533831    0.86841023
 C                 -1.20696925    2.21383183    0.70165733
 H                 -0.47183867    0.18860406    0.66584048
 C                  1.30499616    0.76522535    2.30660057
 H                  1.52951064    2.38446590    0.82219685
 H                  1.91451568    0.76916743    0.27960205
 C                 -1.21427537    2.74415254    2.14807337
 H                 -2.15017825    1.75451339    0.49122127
 H                 -1.06432781    3.08388392    0.09538776
 C                  0.53163673    1.49091666    3.42979512
 H                  0.93041157   -0.23504672    2.24302247
 H                  2.33213349    0.76588996    2.60641460
 C                 -0.99678926    1.71387069    3.24508196
 H                 -2.17333180    3.20342179    2.26716371
 H                 -0.43417719    3.46443499    2.28051211
 H                  0.96814331    2.45960376    3.55631510
 H                  0.66413644    0.89860271    4.31099205
 H                 -1.53254312    0.81039003    3.04114448
 H                 -1.34587951    2.13490224    4.16473865
 Pt                -0.11215038    1.18792377   -1.74452254
 N                 -0.16128897    1.15040107    0.31454944

 1 28 1.0
 2 28 1.0
 3 28 1.0
 4 28 1.0
 5 6 1.0 7 1.0 8 1.0 28 1.0
 6
 7
 8
 9 12 1.0 13 1.0 14 1.0 29 1.0
 10 15 1.0 16 1.0 17 1.0 29 1.0
 11 29 1.0
 12 18 1.0 19 1.0 20 1.0
 13
 14
 15 21 1.0 22 1.0 23 1.0
 16
 17
 18 21 1.0 24 1.0 25 1.0
 19
 20
 21 26 1.0 27 1.0
 22
 23
 24
 25
 26
 27
 28 29 1.0
 29

