%mem=4GB
%nprocshared=8
#p opt hf lanl1mb

328 FINAL HEAT OF FORMATION = 0.000000

0 1
 Pt                 0.66301211   -0.39899570    0.99271138
 Cl                -1.61698789   -0.39899570    0.99271138
 Cl                 0.66301211   -0.39899570    3.27271138
 N                  0.66301211   -0.39899570   -0.99728862
 H                  1.13441627    0.41750109   -1.33062195
 H                  1.13441699   -1.21549207   -1.33062195
 N                  2.65301211   -0.39899570    0.99271138
 H                  2.98634544   -1.21558359    0.52146505
 H                  2.98634544    0.41740954    0.52114869
 H                 -0.27979693   -0.39899611   -1.33062195
 H                  2.98634544   -0.39881305    1.93552041
 O                  0.66301211    1.55100430    0.99271138
 C                  1.70346081    2.02862391    0.26418136
 O                  2.45517793    1.20924916   -0.26222933
 O                  0.66301211   -2.34899570    0.99271138
 C                  1.39154214   -2.82661531   -0.04773732
 O                  1.91795282   -2.00724055   -0.79945444
 C                  1.41755179   -4.36594798   -0.08486451
 H                  0.41873526   -4.73731302   -0.18157824
 H                  2.00196274   -4.69276463   -0.91946304
 C                  1.74058800    3.56795658    0.23817170
 H                  1.83727083    3.93932241    1.23699093
 H                  2.57520433    3.89477324   -0.34621383
 Br                 0.12422274    4.23083975   -0.53387055
 Br                 2.18954385   -5.02883256    1.53152415

 1 2 1.0 3 1.0 4 1.0 7 1.0 12 1.0 15 1.0
 2
 3
 4 5 1.0 6 1.0 10 1.0
 5
 6
 7 8 1.0 9 1.0 11 1.0
 8
 9
 10
 11
 12 13 1.0
 13 14 2.0 21 1.0
 14
 15 16 1.0
 16 17 2.0 18 1.0
 17
 18 19 1.0 20 1.0 25 1.0
 19
 20
 21 22 1.0 23 1.0 24 1.0
 22
 23
 24
 25

