%mem=4GB
%nprocshared=8
#p opt hf lanl1mb

328 FINAL HEAT OF FORMATION = 0.000000

0 1
 Pt                -0.39823817    0.28124478    0.00987359
 Cl                 1.88175802    0.27916177    0.01348400
 Cl                -0.40184723    0.28272012    2.28987026
 N                 -0.39508815    0.27995710   -1.98012350
 H                 -0.86671067   -0.53632420   -2.31367567
 H                 -0.86521782    1.09666794   -2.31472998
 N                 -2.38823484    0.28306285    0.00672240
 H                 -2.72007465    1.09956747   -0.46572075
 H                 -2.72306003    0.28395935    0.94900224
 H                  0.54824695    0.27888047   -2.31196339
 C                 -2.87823484   -0.91717382   -0.68626529
 C                 -3.67225957   -1.77291305    0.27965606
 C                 -3.72089639   -0.50762417   -1.87737139
 H                 -1.98234656   -1.49030671   -1.04273722
 C                 -4.26712434   -2.98132976   -0.41418194
 H                 -4.49594762   -1.15919213    0.73048695
 H                 -3.00698996   -2.11031907    1.11643900
 C                 -4.31509540   -1.71611881   -2.57168594
 H                 -4.54707607    0.16927041   -1.53446070
 H                 -3.09091061    0.07006612   -2.60251506
 C                 -5.10820685   -2.57309884   -1.60628416
 H                 -4.89821811   -3.55791136    0.31091097
 H                 -3.44111019   -3.65928862   -0.75543123
 H                 -4.98071959   -1.37875306   -3.40815153
 H                 -3.49093609   -2.32887564   -3.02308452
 H                 -5.47954089   -3.48909123   -2.13511762
 H                 -6.00579127   -2.00167220   -1.25109447
 O                 -0.39645465    2.23124356    0.00861461
 C                 -1.43531157    2.70934201   -0.72187028
 O                 -2.18699321    1.89031400   -1.24887089
 O                 -0.40002169   -1.66875400    0.01113257
 C                  0.14129472   -2.14761052   -1.13738081
 O                  0.53350910   -1.32913021   -1.96793464
 C                 -1.47100178    4.24869083   -0.74891520
 H                 -0.57060884    4.61857849   -1.19318503
 H                 -2.31255796    4.57590964   -1.32303283
 H                 -1.55463626    4.62113145    0.25068134
 C                  0.15923136   -3.68698639   -1.17738351
 H                  0.31552349   -4.01583016   -2.18353188
 H                  0.95091571   -4.05071434   -0.55622501
 H                 -0.77628269   -4.06398056   -0.82018769

 1 2 1.0 3 1.0 4 1.0 7 1.0 28 1.0 31 1.0
 2
 3
 4 5 1.0 6 1.0 10 1.0
 5
 6
 7 8 1.0 9 1.0 11 1.0
 8
 9
 10
 11 12 1.0 13 1.0 14 1.0
 12 15 1.0 16 1.0 17 1.0
 13 18 1.0 19 1.0 20 1.0
 14
 15 21 1.0 22 1.0 23 1.0
 16
 17
 18 21 1.0 24 1.0 25 1.0
 19
 20
 21 26 1.0 27 1.0
 22
 23
 24
 25
 26
 27
 28 29 1.0
 29 30 2.0 34 1.0
 30
 31 32 1.0
 32 33 2.0 38 1.0
 33
 34 35 1.0 36 1.0 37 1.0
 35
 36
 37
 38 39 1.0 40 1.0 41 1.0
 39
 40
 41

