%mem=4GB
%nprocshared=8
#p opt hf lanl1mb

328 FINAL HEAT OF FORMATION = 0.000000

0 1
 Pt                 0.04192513   -0.51362680    0.00054883
 O                  0.04192513    1.43637320    0.00054883
 H                  0.68193534    1.75682779   -0.63921345
 O                  0.04192513   -2.46362680    0.00054883
 H                 -0.59783716   -2.78408138    0.64055905
 N                  0.04192513   -0.51362680   -1.98945117
 H                  0.83876407   -1.01754802   -2.32278450
 H                 -0.79290292   -0.95174895   -2.32278450
 N                 -1.94807487   -0.51362680    0.00054883
 H                 -2.28140821   -1.00098115    0.80762666
 H                 -2.28140821    0.42900028    0.01907117
 N                  2.03192513   -0.51362680    0.00054883
 N                  0.04192513   -0.51362680    1.99054883
 N                  2.64792513   -0.53334230    1.06730995
 N                 -1.02479789   -0.49194707    2.60654883
 N                 -1.02462330   -0.48243936    4.00651654
 N                  4.04787535   -0.54514635    1.06712054
 H                 -2.28140821   -0.96889952   -0.82505134
 H                  0.07991424    0.42841658   -2.32278450

 1 2 1.0 4 1.0 6 1.0 9 1.0 12 1.0 13 1.0
 2 3 1.0
 3
 4 5 1.0
 5
 6 7 1.0 8 1.0 19 1.0
 7
 8
 9 10 1.0 11 1.0 18 1.0
 10
 11
 12 14 2.0
 13 15 2.0
 14 17 1.0
 15 16 1.0
 16
 17
 18
 19

