%mem=4GB
%nprocshared=8
#p opt hf lanl1mb

328 FINAL HEAT OF FORMATION = 0.000000

0 1
 Pt                 0.15237762   -0.42267610   -0.11286358
 O                 -0.04813007    1.51569727   -0.03081003
 H                  0.61572085    1.93066580   -0.58839150
 O                  0.40657191   -2.36037686   -0.15495990
 H                  0.05520876   -2.74954742    0.64940367
 N                 -0.67390928   -0.46539871   -1.90358306
 H                 -0.19192742   -1.08143542   -2.52496342
 N                 -1.76617757   -0.68777046    0.44525397
 H                 -1.91617497   -0.30686039    1.35829859
 N                  2.04295198   -0.16065677   -0.66398161
 N                  0.80572489   -0.41872536    1.76480645
 N                  2.93284806   -0.16494758    0.18651448
 N                 -0.00390014   -0.42616819    2.69202101
 N                  0.45034336   -0.41906029    4.01672071
 N                  4.26851656    0.01239315   -0.19095878
 H                 -1.99688399   -1.66245107    0.45369511
 H                 -0.70433280    0.44425568   -2.32056371
 C                 -2.59599254    0.02815824   -0.55839790
 H                 -3.52009348   -0.23260941   -0.08283358
 H                 -2.02561184    0.84866899   -0.17589991
 C                 -1.99679477   -0.95793936   -1.58400946
 H                 -2.62598400   -1.03986474   -2.44570474
 H                 -1.88930143   -1.92422220   -1.13329739

 1 2 1.0 4 1.0 6 1.0 8 1.0 10 1.0 11 1.0
 2 3 1.0
 3
 4 5 1.0
 5
 6 7 1.0 17 1.0 21 1.0
 7
 8 9 1.0 16 1.0 18 1.0
 9
 10 12 2.0
 11 13 2.0
 12 15 1.0
 13 14 1.0
 14
 15
 16
 17
 18 19 1.0 20 1.0 21 1.0
 19
 20
 21 22 1.0 23 1.0
 22
 23

