%mem=4GB
%nprocshared=8
#p opt hf lanl1mb

328 FINAL HEAT OF FORMATION = 0.000000

0 1
 Pt                -0.23060796    0.03144654    0.00000000
 O                 -0.23060796    1.98144654    0.00000000
 H                  0.40940225    2.30190112   -0.63976228
 O                 -0.23060796   -1.91855346    0.00000000
 H                 -0.87054113   -2.23900805    0.63983935
 N                 -0.23060796    0.03144654   -1.99000000
 H                  0.56623098   -0.47247468   -2.32333333
 H                 -1.06543601   -0.40667561   -2.32333333
 N                  1.75939204    0.03144654    0.00000000
 N                  2.37539204    0.01694256    1.06684471
 N                  3.77539204    0.01685158    1.06684347
 N                 -2.22060796    0.03144654    0.00000000
 N                 -2.83660797    0.41174912   -0.99686405
 N                 -4.23657322    0.40254107   -1.00039839
 H                 -0.19261885    0.97348991   -2.32333333
 C                 -0.24069103    1.23968228    2.75752144
 C                 -0.22063920   -1.17641715    2.75750561
 C                 -0.24012266    1.23996482    4.15223336
 C                 -0.22106514   -1.17631606    4.15264348
 H                 -0.21287131   -2.12878866    2.20790832
 C                 -0.23066644    0.03159467    4.85006480
 H                 -0.24743589    2.19227457    4.70209623
 H                 -0.21361926   -2.12882075    4.70232849
 H                 -0.23027945    0.03206693    5.94974473
 N                 -0.23060796    0.03144654    2.06000000
 C                 -0.25060688    2.57302896    1.98700972
 H                  0.62417362    2.63735780    1.37421214
 H                 -1.12305196    2.62161244    1.36945063
 H                 -0.25983188    3.38653247    2.68201111

 1 2 1.0 4 1.0 6 1.0 9 1.0 12 1.0 25 1.0
 2 3 1.0
 3
 4 5 1.0
 5
 6 7 1.0 8 1.0 15 1.0
 7
 8
 9 10 2.0
 10 11 1.0
 11
 12 13 2.0
 13 14 1.0
 14
 15
 16 18 1.5 25 1.5 26 1.0
 17 19 1.5 20 1.0 25 1.5
 18 21 1.5 22 1.0
 19 21 1.5 23 1.0
 20
 21 24 1.0
 22
 23
 24
 25
 26 27 1.0 28 1.0 29 1.0
 27
 28
 29

