%mem=4GB
%nprocshared=8
#p opt hf lanl1mb

328 FINAL HEAT OF FORMATION = 0.000000

0 1
 Pt                -0.23060796    0.03144654    0.00000000
 O                 -0.23060796    1.98144654    0.00000000
 H                  0.40940225    2.30190112   -0.63976228
 O                 -0.23060796   -1.91855346    0.00000000
 H                 -0.87054113   -2.23900805    0.63983935
 N                 -0.23060796    0.03144654   -1.99000000
 H                  0.56623098   -0.47247468   -2.32333333
 H                 -1.06543601   -0.40667561   -2.32333333
 N                  1.75939204    0.03144654    0.00000000
 N                  2.37539204    0.01694256    1.06684471
 N                  3.77539204    0.01685158    1.06684347
 N                 -2.22060796    0.03144654    0.00000000
 N                 -2.83660797    0.41174912   -0.99686405
 N                 -4.23657322    0.40254107   -1.00039839
 H                 -0.19261885    0.97348991   -2.32333333
 C                 -0.24069103    1.23968228    2.75752144
 C                 -0.22063920   -1.17641715    2.75750561
 C                 -0.24012266    1.23996482    4.15223336
 C                 -0.22106514   -1.17631606    4.15264348
 H                 -0.21287131   -2.12878866    2.20790832
 C                 -0.23066644    0.03159467    4.85006480
 H                 -0.21361926   -2.12882075    4.70232849
 H                 -0.23027945    0.03206693    5.94974473
 N                 -0.23060796    0.03144654    2.06000000
 C                 -0.25036416    2.57358620    4.92226525
 H                 -0.24824805    2.37805085    5.97424503
 H                  0.61864321    3.14163217    4.66332516
 H                 -1.12860352    3.12768228    4.66424749
 H                 -0.24758061    2.16609848    2.22216589

 1 2 1.0 4 1.0 6 1.0 9 1.0 12 1.0 24 1.0
 2 3 1.0
 3
 4 5 1.0
 5
 6 7 1.0 8 1.0 15 1.0
 7
 8
 9 10 2.0
 10 11 1.0
 11
 12 13 2.0
 13 14 1.0
 14
 15
 16 18 1.5 24 1.5 29 1.0
 17 19 1.5 20 1.0 24 1.5
 18 21 1.5 25 1.0
 19 21 1.5 22 1.0
 20
 21 23 1.0
 22
 23
 24
 25 26 1.0 27 1.0 28 1.0
 26
 27
 28
 29

