%mem=4GB
%nprocshared=8
#p opt hf lanl1mb

328 FINAL HEAT OF FORMATION = 0.000000

0 1
 Pt                -0.23060796    0.03144654    0.00000000
 O                 -0.23060796    1.98144654    0.00000000
 H                  0.40940225    2.30190112   -0.63976228
 O                 -0.23060796   -1.91855346    0.00000000
 H                 -0.87054113   -2.23900805    0.63983935
 N                 -0.23060796    0.03144654   -1.99000000
 H                  0.56623098   -0.47247468   -2.32333333
 H                 -1.06543601   -0.40667561   -2.32333333
 N                  1.75939204    0.03144654    0.00000000
 N                  2.37539204    0.01694256    1.06684471
 N                  3.77539204    0.01685158    1.06684347
 N                 -2.22060796    0.03144654    0.00000000
 N                 -2.83660797    0.41174912   -0.99686405
 N                 -4.23657322    0.40254107   -1.00039839
 H                 -0.19261885    0.97348991   -2.32333333
 N                 -0.23060796    0.03144654    1.99000000
 H                 -0.67874017    0.86094423    2.32333333
 H                  0.71182421    0.00479156    2.32333333
 C                 -0.95722892   -1.14873226    2.47999999
 H                 -0.41744202   -2.03443554    2.21720768
 H                 -1.92996800   -1.17872949    2.03527667
 C                 -1.09532315   -1.06718540    4.01162661
 H                 -1.69079693   -1.88503550    4.36009782
 H                 -0.12515236   -1.11576045    4.46030143
 H                 -1.56596873   -0.14410106    4.27866224

 1 2 1.0 4 1.0 6 1.0 9 1.0 12 1.0 16 1.0
 2 3 1.0
 3
 4 5 1.0
 5
 6 7 1.0 8 1.0 15 1.0
 7
 8
 9 10 2.0
 10 11 1.0
 11
 12 13 2.0
 13 14 1.0
 14
 15
 16 17 1.0 18 1.0 19 1.0
 17
 18
 19 20 1.0 21 1.0 22 1.0
 20
 21
 22 23 1.0 24 1.0 25 1.0
 23
 24
 25

