%mem=4GB
%nprocshared=8
#p opt hf lanl1mb

328 FINAL HEAT OF FORMATION = 0.000000

0 1
 Pt                 0.46022100   -0.30044800   -0.19919700
 O                  0.24591300    0.59191900   -2.09020600
 H                  1.10412200    0.69328100   -2.56662600
 O                  0.42653300   -1.33416600    1.64096800
 H                  0.82844000   -0.80567300    2.37037500
 N                  0.12037300   -2.39388200   -1.11821700
 H                  1.00485400   -2.74878200   -1.50198400
 H                 -0.16704300   -3.06403000   -0.39422900
 N                  2.50828400   -0.84240900   -0.55583400
 N                  3.33504700   -0.04107900   -0.02196300
 N                  4.16317200    0.66640600    0.43072800
 H                 -0.57239700   -2.45754000   -1.87472600
 N                  0.57411200    1.62950200    0.71331600
 N                  1.77266400    1.97453300    0.95266100
 N                  2.85193900    2.37310300    1.21575900
 C                 -2.75009800   -0.31846300    0.83161200
 C                 -2.22138200    1.03532900   -0.99965800
 C                 -4.04637400    0.20326100    0.83592100
 C                 -3.49405900    1.57347500   -1.03659700
 H                 -1.44109700    1.30052400   -1.71184700
 C                 -4.42111800    1.15335900   -0.09345700
 H                 -4.74812600   -0.15086500    1.57737800
 H                 -3.74756100    2.30786300   -1.78767800
 H                 -5.42677600    1.55975300   -0.08829100
 N                 -1.83547500    0.10667500   -0.08303700
 C                 -2.35573600   -1.40566800    1.82783900
 H                 -1.26336700   -1.45754100    1.91569800
 H                 -2.81091800   -1.19977900    2.79089600
 H                 -2.73516600   -2.36196200    1.47445600

