%mem=4GB
%nprocshared=8
#p opt hf lanl1mb

328 FINAL HEAT OF FORMATION = 0.000000

0 1
 Pt                -0.23060796    0.03144654    0.00000000
 O                 -0.23060796    1.98144654    0.00000000
 H                  0.40940225    2.30190112   -0.63976228
 O                 -0.23060796   -1.91855346    0.00000000
 H                 -0.87054113   -2.23900805    0.63983935
 N                 -0.23060796    0.03144654   -1.99000000
 H                  0.56623098   -0.47247468   -2.32333333
 H                 -1.06543601   -0.40667561   -2.32333333
 N                  1.75939204    0.03144654    0.00000000
 N                  2.37539204    0.01694256    1.06684471
 N                  3.77539204    0.01685158    1.06684347
 H                 -0.19261885    0.97348991   -2.32333333
 N                 -0.23060796    0.03144654    1.99000000
 N                  0.83608837    0.05440157    2.60600000
 N                  0.83609025    0.05431439    4.00600000
 N                 -2.22060796    0.03144654    0.00000000
 H                 -2.55394129    0.89232597   -0.38441579
 H                 -2.55394129   -0.06607933    0.93775135
 C                 -2.71060796   -1.09068318   -0.81340328
 H                 -2.41352006   -2.01446236   -0.36254762
 H                 -2.29675455   -1.02497341   -1.79793747
 C                 -4.24716498   -1.03126875   -0.89744165
 H                 -4.66076511   -1.08963020    0.08766183
 H                 -4.54401275   -0.11068363   -1.35493966
 C                 -4.76120755   -2.21281172   -1.74083743
 H                 -4.45160193   -3.13317653   -1.29142337
 H                 -5.82971828   -2.18002796   -1.78677269
 H                 -4.35946171   -2.14617253   -2.73031178

 1 2 1.0 4 1.0 6 1.0 9 1.0 13 1.0 16 1.0
 2 3 1.0
 3
 4 5 1.0
 5
 6 7 1.0 8 1.0 12 1.0
 7
 8
 9 10 2.0
 10 11 1.0
 11
 12
 13 14 2.0
 14 15 1.0
 15
 16 17 1.0 18 1.0 19 1.0
 17
 18
 19 20 1.0 21 1.0 22 1.0
 20
 21
 22 23 1.0 24 1.0 25 1.0
 23
 24
 25 26 1.0 27 1.0 28 1.0
 26
 27
 28

