%mem=4GB
%nprocshared=8
#p opt hf lanl1mb

328 FINAL HEAT OF FORMATION = 0.000000

0 1
 Pt                -0.23060796    0.03144654    0.00000000
 O                 -0.23060796    1.98144654    0.00000000
 H                  0.40940225    2.30190112   -0.63976228
 O                 -0.23060796   -1.91855346    0.00000000
 H                 -0.87054113   -2.23900805    0.63983935
 N                 -0.23060796    0.03144654   -1.99000000
 H                  0.56623098   -0.47247468   -2.32333333
 H                 -1.06543601   -0.40667561   -2.32333333
 N                  1.75939204    0.03144654    0.00000000
 N                  2.37539204    0.01694256    1.06684471
 N                  3.77539204    0.01685158    1.06684347
 H                 -0.19261885    0.97348991   -2.32333333
 N                 -0.23060796    0.03144654    1.99000000
 N                  0.83608837    0.05440157    2.60600000
 N                  0.83609025    0.05431439    4.00600000
 C                 -2.98812940   -1.09105844   -0.44712173
 C                 -2.98811357    1.15356386    0.44708701
 C                 -4.38284132   -1.09110532   -0.44775472
 C                 -4.38325144    1.15330935    0.44744320
 H                 -2.43851628    2.03829157    0.79968979
 C                 -5.08067276    0.03128729   -0.00000182
 H                 -4.93293645    2.03803871    0.80039443
 H                 -6.18035269    0.03099623   -0.00053854
 N                 -2.29060796    0.03144654    0.00000000
 C                 -5.15287322   -2.32976371   -0.94209901
 H                 -6.20482496   -2.15116642   -0.86209568
 H                 -4.90048604   -2.52229241   -1.96392747
 H                 -4.88833056   -3.17645826   -0.34374666
 H                 -2.45277385   -1.95142252   -0.79073209

 1 2 1.0 4 1.0 6 1.0 9 1.0 13 1.0 24 1.0
 2 3 1.0
 3
 4 5 1.0
 5
 6 7 1.0 8 1.0 12 1.0
 7
 8
 9 10 2.0
 10 11 1.0
 11
 12
 13 14 2.0
 14 15 1.0
 15
 16 18 1.5 24 1.5 29 1.0
 17 19 1.5 20 1.0 24 1.5
 18 21 1.5 25 1.0
 19 21 1.5 22 1.0
 20
 21 23 1.0
 22
 23
 24
 25 26 1.0 27 1.0 28 1.0
 26
 27
 28
 29

