%mem=4GB
%nprocshared=8
#p opt hf lanl1mb

328 FINAL HEAT OF FORMATION = 0.000000

0 1
 Pt                 0.07951928   -0.13149263    0.19278238
 Cl                -0.44331022    2.08328884    0.33347231
 Cl                 0.31851152    0.15705499   -2.05622258
 Cl                -0.17166294   -0.37395695    2.44589538
 Cl                 0.61325630   -2.33670409   -0.03209027
 N                  2.00076907    0.29748999    0.48411533
 H                  2.28257877   -0.03064402    1.38573131
 H                  2.55251376   -0.14877572   -0.22045880
 N                 -1.84616396   -0.57696365   -0.03828575
 C                 -2.36601332   -1.62327031    0.62660793
 C                 -2.60378347    0.17382669   -0.85646170
 C                 -3.71897872   -1.95958355    0.48257927
 H                 -1.74108819   -2.20474331    1.27178817
 C                 -3.96273723   -0.11722211   -1.03784936
 H                 -2.16527556    1.00131099   -1.37403351
 C                 -4.52810726   -1.19739446   -0.36010969
 H                 -4.12751991   -2.79345916    1.01422359
 H                 -4.56111704    0.48372595   -1.69030858
 C                 -6.01833240   -1.54214116   -0.53893569
 O                 -7.00216266   -1.15297340    0.08890846
 O                 -6.22651957   -2.41291134   -1.55865497
 H                 -7.17248935   -2.61302631   -1.64951760
 C                  2.61912544    1.63109463    0.48995214
 H                  1.86498441    2.37458350    0.33699590
 C                  3.30908664    1.87107989    1.84566620
 H                  3.29924986    2.91711198    2.07065531
 H                  2.78657715    1.33663924    2.61134043
 H                  4.32082137    1.52623136    1.79695963
 C                  3.66236513    1.71815030   -0.63950448
 H                  3.39518984    2.50649936   -1.31183113
 H                  4.62618572    1.91835047   -0.22013620
 H                  3.69056786    0.79008773   -1.17129813

 1 2 1.0 3 1.0 4 1.0 5 1.0 6 1.0 9 1.0
 2
 3
 4
 5
 6 7 1.0 8 1.0 23 1.0
 7
 8
 9 10 1.5 11 1.5
 10 12 1.5 13 1.0
 11 14 1.5 15 1.0
 12 16 1.5 17 1.0
 13
 14 16 1.5 18 1.0
 15
 16 19 1.0
 17
 18
 19 20 2.0 21 1.0
 20
 21 22 1.0
 22
 23 24 1.0 25 1.0 29 1.0
 24
 25 26 1.0 27 1.0 28 1.0
 26
 27
 28
 29 30 1.0 31 1.0 32 1.0
 30
 31
 32

