%mem=4GB
%nprocshared=8
#p opt hf lanl1mb

328 FINAL HEAT OF FORMATION = 0.000000

0 1
 Pt                 0.05232974    0.09599167    0.70651126
 N                 -0.07651306    1.45840550   -0.75062860
 N                  0.13721854   -1.20152243   -0.81292391
 C                 -0.47862100    0.75088558   -1.97274088
 H                  0.82703265    1.86718037   -0.88204461
 Cl                 0.03777259    1.72459951    2.30224025
 Cl                 0.16514628   -1.62467796    2.19875698
 C                  0.46083122   -0.43920283   -2.02529170
 H                 -0.76545153   -1.61974442   -0.91563315
 H                 -0.38740623    1.38733506   -2.82810634
 H                 -1.48944478    0.40557432   -1.90992809
 H                  1.47244670   -0.09135477   -2.00780425
 H                  0.32019823   -1.04068032   -2.89903601
 H                  0.81540898   -1.91871702   -0.65366174
 H                 -0.73313297    2.17881229   -0.52827808
 O                 -1.88698210   -0.01191723    0.87357689
 C                 -2.48338567    1.22305072    0.46486407
 O                 -1.84043719    2.30017566    0.56920345
 O                  1.99731868    0.19598911    0.77900679
 C                  2.54499944   -1.11622385    0.63246903
 O                  1.88581634   -2.12117697    1.00623670
 C                  3.94321531   -1.29614174    0.01491396
 C                  4.94100457   -1.39576028    1.14413049
 C                  4.25187791   -2.60803830   -0.70590297
 H                  4.09717131   -0.51061037   -0.69515950
 C                  5.90373959   -2.44120937    0.61312899
 H                  5.34358387   -0.44486344    1.42410289
 C                  5.42116748   -2.41948429   -1.65479541
 H                  3.38875610   -2.97975077   -1.21761591
 C                  6.51270967   -1.97196559   -0.70762125
 H                  6.66517591   -2.67176612    1.32904071
 H                  5.29288521   -1.75174104   -2.48122167
 H                  5.63396863   -3.39537580   -2.03813199
 H                  6.67097847   -0.91760491   -0.61705715
 H                  7.42922510   -2.42317959   -1.02600245
 C                 -3.91725549    1.22952962   -0.09935024
 C                 -4.86247772    1.53158049    1.04272348
 C                 -4.31881782    2.35163928   -1.05350500
 H                 -4.07380378    0.30986249   -0.62257481
 C                 -5.89464522    2.41949299    0.36437781
 H                 -4.38502070    2.15752180    1.76747791
 H                 -5.21018842    0.64734705    1.53464390
 C                 -5.53787849    1.95776453   -1.87124965
 C                 -6.55600709    1.67671177   -0.79094136
 H                 -6.62332340    2.77146375    1.06398875
 H                 -5.43504836    1.14546715   -2.55972726
 H                 -5.80681602    2.83601709   -2.42072193
 H                 -6.66728235    0.65777079   -0.48318091
 H                 -7.50599416    2.02902320   -1.13454656
 O                  4.91224552   -3.50961190    0.28518955
 O                 -4.97152244    3.42352653   -0.24061680
 C                  4.28855267   -2.03213996    2.38701430
 O                  3.29676617   -2.79572103    2.25501016
 O                  4.80680514   -1.75726823    3.69065736
 H                  4.09385657   -1.80338051    4.33243263
 C                 -3.15869144    2.77281520   -1.97472156
 O                 -2.61901569    1.92429943   -2.73147900
 O                 -2.65361263    4.11074920   -1.92406224
 H                 -1.92292729    4.20281170   -2.54070798

 1 2 1.0 3 1.0 8 1.0 7 1.0 10 1.0 9 1.0
 2 5 1.0 6 1.0 4 1.0
 3 11 1.0 13 1.0 12 1.0
 4 11 1.0 14 1.0 15 1.0
 5 16 1.0 17 1.0 18 1.0
 6
 7
 8
 9
 10
 11 19 1.0 20 1.0
 12 22 1.0 21 1.0 23 1.0
 13
 14
 15
 16 24 1.0 25 1.0 26 1.0
 17 28 2.0 27 1.0
 18
 19
 20
 21 29 1.0 30 1.0 31 1.0
 22 33 2.0 32 1.0
 23
 24 34 1.0 35 1.0 36 1.0
 25
 26
 27 37 1.0
 28
 29 38 1.0 39 1.0 40 1.0
 30
 31
 32 41 1.0
 33
 34 42 1.0 43 1.0 44 1.0
 35 45 1.0 47 1.0 46 1.0
 36
 37 50 1.0 48 1.0 49 1.0
 38 51 1.0 53 1.0 52 1.0
 39 54 1.0 56 1.0 55 1.0
 40
 41 59 1.0 58 1.0 57 1.0
 42 60 1.0 62 1.0 61 1.0
 43
 44
 45 60 1.0 63 1.0 64 1.0
 46
 47
 48
 49
 50
 51 65 1.0 67 1.0 66 1.0
 52
 53
 54 65 1.0 68 1.0 69 1.0
 55
 56
 57
 58
 59
 60 71 1.0 70 1.0
 61
 62
 63
 64
 65 73 1.0 72 1.0
 66
 67
 68
 69
 70
 71
 72
 73







