%mem=2GB
%nprocshared=4
#p opt hf lanl1mb

328 FINAL HEAT OF FORMATION = 0.000000

0 1
 Pt                -0.28480534    0.80241173   -0.13741271
 Cl                 1.99519466    0.80241173   -0.13741271
 Cl                -0.28480534    0.80241173    2.14258729
 N                 -0.28480534    0.80241173   -2.12741271
 H                 -0.75620950   -0.01408506   -2.46074604
 H                 -0.75621022    1.61890810   -2.46074604
 N                 -2.27480534    0.80241173   -0.13741271
 H                 -2.60813867    1.61899962   -0.60865904
 H                 -2.60813867   -0.01399351   -0.60897540
 H                 -2.60813867    0.80222908    0.80539632
 H                  0.65800370    0.80241215   -2.46074604
 O                 -0.28480534    2.75241173   -0.13741271
 C                 -1.30670038    3.23003134    0.61692146
 O                 -2.04501128    2.41065659    1.16197544
 O                 -0.28480534   -1.14758827   -0.13741271
 C                  0.66763255   -1.62520788   -0.97774096
 O                  1.35581366   -0.80583312   -1.58486004
 C                  0.70163173   -3.16454055   -1.00772405
 H                  1.46564568   -3.49135720   -1.68179642
 H                  0.90943623   -3.53589406   -0.02598383
 H                 -0.24656397   -3.53590626   -1.33622432
 C                 -1.34316517    4.76936401    0.64385190
 H                 -1.46457434    5.14073585   -0.35226194
 H                 -2.16303868    5.09618067    1.24874718
 H                 -0.42721838    5.14071141    1.05378187

 1 2 1.0 3 1.0 4 1.0 7 1.0 12 1.0 15 1.0
 2
 3
 4 5 1.0 6 1.0 11 1.0
 5
 6
 7 8 1.0 9 1.0 10 1.0
 8
 9
 10
 11
 12 13 1.0
 13 14 2.0 22 1.0
 14
 15 16 1.0
 16 17 2.0 18 1.0
 17
 18 19 1.0 20 1.0 21 1.0
 19
 20
 21
 22 23 1.0 24 1.0 25 1.0
 23
 24
 25

