%mem=2GB
%nprocshared=4
#p opt hf lanl1mb

328 FINAL HEAT OF FORMATION = 0.000000

0 1
 Pt                -0.00000400   -0.35080800    0.00012900
 Cl                 0.00007400    1.25348800   -1.88170500
 Cl                -0.00005600    1.25583500    1.87994800
 N                  0.00000600   -1.81693500   -1.59643200
 H                  0.83592500   -2.41820000   -1.60096800
 H                 -0.83603700   -2.41802700   -1.60107100
 N                  0.00001600   -1.81493600    1.59852000
 H                 -0.83603200   -2.41601600    1.60393800
 H                  0.83593900   -2.41619000    1.60374900
 H                  0.00011500   -1.29230400   -2.48343200
 H                  0.00017000   -1.28921900    2.48487500
 O                 -2.09518500   -0.72817500    0.00039100
 O                  2.09517700   -0.72815000    0.00043600
 C                 -2.79195206   -0.93020183    1.15305754
 C                  2.67144082   -1.60088261   -0.87200918
 O                  2.09277901   -2.24452776   -1.72069150
 O                 -2.33051258   -0.92136039    2.27395152
 C                 -4.29299422   -1.17724306    0.79902191
 C                  4.20955511   -1.64155852   -0.60361152
 H                  4.37215525   -1.93902419    0.43103959
 H                  4.60713513   -0.63441553   -0.71771353
 H                 -4.66489148   -0.31450171    0.24874880
 H                 -4.35431697   -2.03705600    0.13390278
 C                 -5.13961096   -1.41410258    2.06212816
 H                 -6.17811381   -1.58318066    1.79141125
 H                 -4.77602290   -2.28026776    2.60621424
 H                 -5.08722624   -0.55327296    2.72144067
 C                  4.92429472   -2.61249204   -1.56003501
 H                  5.99111047   -2.62399013   -1.35475815
 H                  4.53560911   -3.61895614   -1.43995878
 H                  4.77131462   -2.31100027   -2.59161812

