%mem=2GB
%nprocshared=4
#p opt hf lanl1mb

328 FINAL HEAT OF FORMATION = 0.000000

0 1
 N                  0.48144300    0.21806400   -1.63395400
 H                 -0.23009600    0.12180900   -2.33152700
 N                  0.73055600    1.69328600    0.70301100
 H                  1.01857800    1.59199100    1.65597500
 H                  1.15019800   -0.51388600   -1.73141200
 H                  0.17995900    2.52419000    0.60632900
 Pt                -0.35939500    0.11821700    0.14920800
 Cl                -1.24602200    0.09898700    2.26515700
 Cl                -1.60277700   -1.67802700   -0.48234400
 O                 -1.81204400    1.26100300   -0.43685700
 C                 -2.40605521    1.88602100    0.69306487
 O                 -1.71848460    2.06654574    1.72527872
 O                  1.03865000   -1.13480400    0.68498900
 C                  1.30211900   -2.05950400   -0.37953300
 O                  0.41244700   -2.34466700   -1.23149600
 C                 -3.87251774    2.34970132    0.66022361
 H                 -4.51483549    1.51651947    0.47459372
 C                  2.69735600   -2.70220000   -0.44178600
 H                  3.43045133   -1.92820086   -0.55791186
 H                  2.89818647   -3.24878213    0.45234694
 H                 -3.99664185    3.07412842   -0.11982694
 C                  1.91594000    1.78930200   -0.15156700
 C                  2.77041300    3.01552700    0.31330000
 C                  2.81041900    0.60538400   -0.07166100
 H                  1.60326400    1.88302700   -1.17134000
 C                  4.25115500    2.87347300   -0.17275400
 H                  2.81319100    3.09455600    1.37920400
 H                  2.29464400    3.88265800   -0.09575300
 C                  3.81063500    0.73707100   -1.26801700
 H                  3.30619600    0.64901400    0.87571100
 H                  2.29699800   -0.32969700   -0.15507500
 C                  4.18560800    2.23694200   -1.51503800
 H                  4.82130800    2.22245300    0.45653000
 H                  4.70499600    3.84237700   -0.17640700
 H                  3.38905400    0.38131800   -2.18450700
 H                  4.66457600    0.14705100   -1.00818200
 H                  3.43242800    2.75421200   -2.07142600
 H                  5.10828800    2.27481500   -2.05519900
 H                  0.93099600    1.10437700   -1.74057100
 C                 -4.22852773    2.98378753    2.01596764
 H                 -3.52711643    3.76361218    2.23983197
 H                 -4.18786936    2.23976361    2.78055136
 C                 -5.64578016    3.57761542    1.94234261
 H                 -5.67274698    4.32921480    1.17900304
 H                 -6.34761660    2.80626082    1.70960646
 C                 -6.00984670    4.21157959    3.29750699
 H                 -5.28680306    4.96009032    3.54652857
 H                 -6.97922249    4.65981906    3.23149469
 H                 -6.01677261    3.45612049    4.05508389
 C                  2.75450069   -3.65042775   -1.65248473
 H                  2.14089145   -4.50223527   -1.47234195
 H                  2.39974768   -3.13543912   -2.52756730
 C                  4.20851776   -4.09045686   -1.87862897
 H                  4.54870110   -4.64991896   -1.04054138
 H                  4.82602715   -3.21604160   -2.00442140
 C                  4.28918511   -4.95510292   -3.14872748
 H                  5.30856538   -5.21584616   -3.34060492
 H                  3.71242256   -5.84420348   -3.01215608
 H                  3.90247510   -4.40019209   -3.97965741

