%mem=2GB
%nprocshared=4
#p opt hf lanl1mb

328 FINAL HEAT OF FORMATION = 0.000000

0 1
 Pt                -0.50560241   -0.82444081    0.30041535
 Cl                 1.73337521   -0.91897290    0.72048282
 Cl                -0.90738360   -0.96984417    2.53999696
 N                 -0.11125413   -0.74553292   -1.64855079
 H                 -0.76837005   -1.31285875   -2.14488660
 H                 -0.18181235    0.20049121   -1.96488061
 N                 -2.45932630   -0.74305846   -0.06926022
 H                 -2.65900176    0.05912111   -0.63198013
 H                 -2.74129707   -1.56998983   -0.55569225
 H                  0.81465708   -1.08455942   -1.81527105
 H                 -2.95945685   -0.67737515    0.79421147
 Cl                -0.46145189    1.44844787    0.47485101
 Cl                -0.63779290   -3.09605671    0.15658605

 1 2 1.0 3 1.0 4 1.0 7 1.0 12 1.0 13 1.0
 2
 3
 4 5 1.0 6 1.0 10 1.0
 5
 6
 7 8 1.0 9 1.0 11 1.0
 8
 9
 10
 11
 12
 13

