%mem=2GB
%nprocshared=4
#p opt hf lanl1mb

328 FINAL HEAT OF FORMATION = 0.000000

0 1
 Pt                -0.00001500   -0.57499000    0.00016700
 Cl                 0.07419700    1.02915800   -1.88063300
 Cl                -0.07416000    1.03165300    1.87883000
 N                  0.06184800   -2.04115800   -1.59491700
 H                  0.89854900   -2.64073100   -1.56794500
 H                 -0.77229900   -2.64381000   -1.63080700
 N                 -0.06185100   -2.03903500    1.59719700
 H                 -0.89858000   -2.63860800    1.57108800
 H                  0.77227700   -2.64167000    1.63378700
 H                  0.09425800   -1.51650200   -2.48129600
 H                 -0.09415000   -1.51322200    2.48289400
 O                 -2.09403800   -0.95339600   -0.07970400
 O                  2.09399700   -0.95332400    0.08062300
 C                 -2.86617995   -0.98006690    1.04190418
 C                  2.87524387   -0.93021722   -1.03473409
 O                  2.49637517   -0.69975995   -2.16295112
 O                 -2.47844046   -0.79802829    2.17594279
 C                 -4.34163126   -1.28523876    0.63075945
 C                  4.34786745   -1.25080664   -0.62516799
 H                  4.36899748   -2.23017174   -0.14998869
 H                  4.66662323   -0.52285734    0.11896401
 H                 -4.66778254   -0.52575038   -0.07779880
 H                 -4.36511579   -2.24268393    0.11293251
 C                 -5.27654572   -1.31459307    1.85814865
 H                 -4.91080708   -2.06119136    2.55836868
 H                 -5.23041362   -0.35137151    2.36186349
 C                  5.29295213   -1.22435948   -1.84481163
 H                  4.93439434   -1.93974699   -2.58043375
 H                  5.24920600   -0.23983901   -2.30574354
 C                 -6.73690344   -1.62523048    1.45897329
 H                 -6.78164034   -2.60577434    0.98801177
 H                 -7.05972704   -0.89833794    0.71547759
 C                  6.75053199   -1.55020421   -1.44762142
 H                  7.06584779   -0.85649049   -0.66998923
 H                  6.79318988   -2.55058627   -1.02020154
 C                 -7.72737112   -1.58292366    2.64690080
 H                 -7.68654978   -0.58980553    3.09119948
 H                 -7.40196592   -2.28784582    3.40985768
 C                  7.75070367   -1.45382835   -2.62420844
 H                  7.43292665   -2.12473759   -3.42032665
 H                  7.71171083   -0.44206280   -3.02440605
 C                  9.20669419   -1.77764579   -2.23502383
 H                  9.54163956   -1.13230617   -1.42828549
 H                  9.30818731   -2.80839672   -1.91141958
 H                  9.86428567   -1.62606996   -3.08582526
 C                 -9.18607304   -1.89188618    2.25580414
 H                 -9.52869284   -1.21207726    1.48123950
 H                 -9.28873251   -2.90748309    1.88771146
 H                 -9.83677089   -1.77935223    3.11789097

